problems/csplib-prob056/sonet-models/noch/O2/lingeling/model_4_1-s3ring08-solution000001.solution
language Essence 1.3

letting network be mset({}, {}, {1, 5, 7, 12, 13}, {2, 3, 11, 12}, {2, 6, 10}, {3, 8, 9, 10, 12}, {4, 5, 8, 11})
$ Here is a simple "visualisation" for the value above.
$ 
$ 
$  1  5  7 12 13
$  2  3 11 12
$  2  6 10
$  3  8  9 10 12
$  4  5  8 11

